matrix games/188ce997cfe44d5dbf9d5a857332a4d8-pulp.mps
*SENSE:Maximize
NAME          MODEL
ROWS
 N  OBJ
 E  C0000000
 G  C0000001
 G  C0000002
 G  C0000003
COLUMNS
    X0000000  C0000001  -1.000000000000e+00
    X0000000  C0000002  -1.000000000000e+00
    X0000000  C0000003  -1.000000000000e+00
    X0000000  OBJ        1.000000000000e+00
    X0000001  C0000000   1.000000000000e+00
    X0000001  C0000001  -2.063041124125e-01
    X0000001  C0000002  -7.738339467851e-01
    X0000001  C0000003  -4.482049292392e-01
    X0000002  C0000000   1.000000000000e+00
    X0000002  C0000001  -8.554793996529e-01
    X0000002  C0000002  -2.558754411279e-01
    X0000003  C0000000   1.000000000000e+00
    X0000003  C0000001  -1.000000000000e+00
    X0000003  C0000002  -1.890900236004e-01
    X0000003  C0000003  -2.236712280231e-01
RHS
    RHS       C0000000   1.000000000000e+00
    RHS       C0000001   0.000000000000e+00
    RHS       C0000002   0.000000000000e+00
    RHS       C0000003   0.000000000000e+00
BOUNDS
 FR BND       X0000000
ENDATA
