matrix games/188ce997cfe44d5dbf9d5a857332a4d8-pulp.sol
Optimal - objective value -0.52197173
      0 C0000000               1             -0.52197173
      1 C0000001               0             -0.44378674
      2 C0000002               0             -0.55621326
      3 C0000003      0.29171068                      -0
      0 X0000000     -0.52197173                      -0
      1 X0000001      0.51374055                      -0
      2 X0000002      0.48625945                      -0
      3 X0000003               0            -0.026989392
